c nIsolatedPIs 128
c maxPI 128
p cnf 448 961
c gate 129 -56 -120 0
-56 -129 0
-120 -129 0
56 120 129 0
c gate 130 56 120 0
56 -130 0
120 -130 0
-56 -120 130 0
c gate 131 55 119 0
55 -131 0
119 -131 0
-55 -119 131 0
c gate 132 -130 -131 0
-130 -132 0
-131 -132 0
130 131 132 0
c gate 133 -55 -119 0
-55 -133 0
-119 -133 0
55 119 133 0
c gate 134 -54 -118 0
-54 -134 0
-118 -134 0
54 118 134 0
c gate 135 -133 -134 0
-133 -135 0
-134 -135 0
133 134 135 0
c gate 136 54 118 0
54 -136 0
118 -136 0
-54 -118 136 0
c gate 137 53 117 0
53 -137 0
117 -137 0
-53 -117 137 0
c gate 138 -136 -137 0
-136 -138 0
-137 -138 0
136 137 138 0
c gate 139 -53 -117 0
-53 -139 0
-117 -139 0
53 117 139 0
c gate 140 49 113 0
49 -140 0
113 -140 0
-49 -113 140 0
c gate 141 50 114 0
50 -141 0
114 -141 0
-50 -114 141 0
c gate 142 -140 -141 0
-140 -142 0
-141 -142 0
140 141 142 0
c gate 143 -51 -115 0
-51 -143 0
-115 -143 0
51 115 143 0
c gate 144 -50 -114 0
-50 -144 0
-114 -144 0
50 114 144 0
c gate 145 -52 -116 0
-52 -145 0
-116 -145 0
52 116 145 0
c gate 146 -144 -145 0
-144 -146 0
-145 -146 0
144 145 146 0
c gate 147 -143 146 0
-143 -147 0
146 -147 0
143 -146 147 0
c gate 148 -142 147 0
-142 -148 0
147 -148 0
142 -147 148 0
c gate 149 52 116 0
52 -149 0
116 -149 0
-52 -116 149 0
c gate 150 51 115 0
51 -150 0
115 -150 0
-51 -115 150 0
c gate 151 -145 150 0
-145 -151 0
150 -151 0
145 -150 151 0
c gate 152 -149 -151 0
-149 -152 0
-151 -152 0
149 151 152 0
c gate 153 -148 152 0
-148 -153 0
152 -153 0
148 -152 153 0
c gate 154 -139 -153 0
-139 -154 0
-153 -154 0
139 153 154 0
c gate 155 138 -154 0
138 -155 0
-154 -155 0
-138 154 155 0
c gate 156 135 -155 0
135 -156 0
-155 -156 0
-135 155 156 0
c gate 157 132 -156 0
132 -157 0
-156 -157 0
-132 156 157 0
c gate 158 -129 -157 0
-129 -158 0
-157 -158 0
129 157 158 0
c gate 159 48 112 0
48 -159 0
112 -159 0
-48 -112 159 0
c gate 160 -48 -112 0
-48 -160 0
-112 -160 0
48 112 160 0
c gate 161 47 111 0
47 -161 0
111 -161 0
-47 -111 161 0
c gate 162 -160 161 0
-160 -162 0
161 -162 0
160 -161 162 0
c gate 163 -159 -162 0
-159 -163 0
-162 -163 0
159 162 163 0
c gate 164 -46 -110 0
-46 -164 0
-110 -164 0
46 110 164 0
c gate 165 -47 -111 0
-47 -165 0
-111 -165 0
47 111 165 0
c gate 166 -160 -165 0
-160 -166 0
-165 -166 0
160 165 166 0
c gate 167 -164 166 0
-164 -167 0
166 -167 0
164 -166 167 0
c gate 168 163 167 0
163 -168 0
167 -168 0
-163 -167 168 0
c gate 169 -45 -109 0
-45 -169 0
-109 -169 0
45 109 169 0
c gate 170 46 110 0
46 -170 0
110 -170 0
-46 -110 170 0
c gate 171 45 109 0
45 -171 0
109 -171 0
-45 -109 171 0
c gate 172 -170 -171 0
-170 -172 0
-171 -172 0
170 171 172 0
c gate 173 -169 172 0
-169 -173 0
172 -173 0
169 -172 173 0
c gate 174 168 173 0
168 -174 0
173 -174 0
-168 -173 174 0
c gate 175 44 108 0
44 -175 0
108 -175 0
-44 -108 175 0
c gate 176 -44 -108 0
-44 -176 0
-108 -176 0
44 108 176 0
c gate 177 43 107 0
43 -177 0
107 -177 0
-43 -107 177 0
c gate 178 -176 177 0
-176 -178 0
177 -178 0
176 -177 178 0
c gate 179 -175 -178 0
-175 -179 0
-178 -179 0
175 178 179 0
c gate 180 -42 -106 0
-42 -180 0
-106 -180 0
42 106 180 0
c gate 181 -43 -107 0
-43 -181 0
-107 -181 0
43 107 181 0
c gate 182 -176 -181 0
-176 -182 0
-181 -182 0
176 181 182 0
c gate 183 -180 182 0
-180 -183 0
182 -183 0
180 -182 183 0
c gate 184 179 183 0
179 -184 0
183 -184 0
-179 -183 184 0
c gate 185 42 106 0
42 -185 0
106 -185 0
-42 -106 185 0
c gate 186 41 105 0
41 -186 0
105 -186 0
-41 -105 186 0
c gate 187 -185 -186 0
-185 -187 0
-186 -187 0
185 186 187 0
c gate 188 184 -187 0
184 -188 0
-187 -188 0
-184 187 188 0
c gate 189 179 -188 0
179 -189 0
-188 -189 0
-179 188 189 0
c gate 190 174 -189 0
174 -190 0
-189 -190 0
-174 189 190 0
c gate 191 168 -172 0
168 -191 0
-172 -191 0
-168 172 191 0
c gate 192 163 -191 0
163 -192 0
-191 -192 0
-163 191 192 0
c gate 193 -190 192 0
-190 -193 0
192 -193 0
190 -192 193 0
c gate 194 132 135 0
132 -194 0
135 -194 0
-132 -135 194 0
c gate 195 138 142 0
138 -195 0
142 -195 0
-138 -142 195 0
c gate 196 194 195 0
194 -196 0
195 -196 0
-194 -195 196 0
c gate 197 -49 -113 0
-49 -197 0
-113 -197 0
49 113 197 0
c gate 198 -129 -139 0
-129 -198 0
-139 -198 0
129 139 198 0
c gate 199 -197 198 0
-197 -199 0
198 -199 0
197 -198 199 0
c gate 200 147 199 0
147 -200 0
199 -200 0
-147 -199 200 0
c gate 201 152 200 0
152 -201 0
200 -201 0
-152 -200 201 0
c gate 202 196 201 0
196 -202 0
201 -202 0
-196 -201 202 0
c gate 203 -193 202 0
-193 -203 0
202 -203 0
193 -202 203 0
c gate 204 -158 -203 0
-158 -204 0
-203 -204 0
158 203 204 0
c gate 205 -40 -104 0
-40 -205 0
-104 -205 0
40 104 205 0
c gate 206 40 104 0
40 -206 0
104 -206 0
-40 -104 206 0
c gate 207 39 103 0
39 -207 0
103 -207 0
-39 -103 207 0
c gate 208 -206 -207 0
-206 -208 0
-207 -208 0
206 207 208 0
c gate 209 -39 -103 0
-39 -209 0
-103 -209 0
39 103 209 0
c gate 210 -38 -102 0
-38 -210 0
-102 -210 0
38 102 210 0
c gate 211 -209 -210 0
-209 -211 0
-210 -211 0
209 210 211 0
c gate 212 38 102 0
38 -212 0
102 -212 0
-38 -102 212 0
c gate 213 37 101 0
37 -213 0
101 -213 0
-37 -101 213 0
c gate 214 -212 -213 0
-212 -214 0
-213 -214 0
212 213 214 0
c gate 215 -37 -101 0
-37 -215 0
-101 -215 0
37 101 215 0
c gate 216 33 97 0
33 -216 0
97 -216 0
-33 -97 216 0
c gate 217 34 98 0
34 -217 0
98 -217 0
-34 -98 217 0
c gate 218 -216 -217 0
-216 -218 0
-217 -218 0
216 217 218 0
c gate 219 -35 -99 0
-35 -219 0
-99 -219 0
35 99 219 0
c gate 220 -34 -98 0
-34 -220 0
-98 -220 0
34 98 220 0
c gate 221 -36 -100 0
-36 -221 0
-100 -221 0
36 100 221 0
c gate 222 -220 -221 0
-220 -222 0
-221 -222 0
220 221 222 0
c gate 223 -219 222 0
-219 -223 0
222 -223 0
219 -222 223 0
c gate 224 -218 223 0
-218 -224 0
223 -224 0
218 -223 224 0
c gate 225 36 100 0
36 -225 0
100 -225 0
-36 -100 225 0
c gate 226 35 99 0
35 -226 0
99 -226 0
-35 -99 226 0
c gate 227 -221 226 0
-221 -227 0
226 -227 0
221 -226 227 0
c gate 228 -225 -227 0
-225 -228 0
-227 -228 0
225 227 228 0
c gate 229 -224 228 0
-224 -229 0
228 -229 0
224 -228 229 0
c gate 230 -215 -229 0
-215 -230 0
-229 -230 0
215 229 230 0
c gate 231 214 -230 0
214 -231 0
-230 -231 0
-214 230 231 0
c gate 232 211 -231 0
211 -232 0
-231 -232 0
-211 231 232 0
c gate 233 208 -232 0
208 -233 0
-232 -233 0
-208 232 233 0
c gate 234 -205 -233 0
-205 -234 0
-233 -234 0
205 233 234 0
c gate 235 208 211 0
208 -235 0
211 -235 0
-208 -211 235 0
c gate 236 214 218 0
214 -236 0
218 -236 0
-214 -218 236 0
c gate 237 235 236 0
235 -237 0
236 -237 0
-235 -236 237 0
c gate 238 -33 -97 0
-33 -238 0
-97 -238 0
33 97 238 0
c gate 239 -205 -215 0
-205 -239 0
-215 -239 0
205 215 239 0
c gate 240 -238 239 0
-238 -240 0
239 -240 0
238 -239 240 0
c gate 241 223 240 0
223 -241 0
240 -241 0
-223 -240 241 0
c gate 242 228 241 0
228 -242 0
241 -242 0
-228 -241 242 0
c gate 243 237 242 0
237 -243 0
242 -243 0
-237 -242 243 0
c gate 244 -32 -96 0
-32 -244 0
-96 -244 0
32 96 244 0
c gate 245 32 96 0
32 -245 0
96 -245 0
-32 -96 245 0
c gate 246 31 95 0
31 -246 0
95 -246 0
-31 -95 246 0
c gate 247 -245 -246 0
-245 -247 0
-246 -247 0
245 246 247 0
c gate 248 -31 -95 0
-31 -248 0
-95 -248 0
31 95 248 0
c gate 249 -30 -94 0
-30 -249 0
-94 -249 0
30 94 249 0
c gate 250 -248 -249 0
-248 -250 0
-249 -250 0
248 249 250 0
c gate 251 30 94 0
30 -251 0
94 -251 0
-30 -94 251 0
c gate 252 29 93 0
29 -252 0
93 -252 0
-29 -93 252 0
c gate 253 -251 -252 0
-251 -253 0
-252 -253 0
251 252 253 0
c gate 254 -29 -93 0
-29 -254 0
-93 -254 0
29 93 254 0
c gate 255 28 92 0
28 -255 0
92 -255 0
-28 -92 255 0
c gate 256 -28 -92 0
-28 -256 0
-92 -256 0
28 92 256 0
c gate 257 27 -256 0
27 -257 0
-256 -257 0
-27 256 257 0
c gate 258 91 257 0
91 -258 0
257 -258 0
-91 -257 258 0
c gate 259 -255 -258 0
-255 -259 0
-258 -259 0
255 258 259 0
c gate 260 91 -256 0
91 -260 0
-256 -260 0
-91 256 260 0
c gate 261 -257 -260 0
-257 -261 0
-260 -261 0
257 260 261 0
c gate 262 25 89 0
25 -262 0
89 -262 0
-25 -89 262 0
c gate 263 26 90 0
26 -263 0
90 -263 0
-26 -90 263 0
c gate 264 -262 -263 0
-262 -264 0
-263 -264 0
262 263 264 0
c gate 265 -26 -90 0
-26 -265 0
-90 -265 0
26 90 265 0
c gate 266 -264 -265 0
-264 -266 0
-265 -266 0
264 265 266 0
c gate 267 -261 266 0
-261 -267 0
266 -267 0
261 -266 267 0
c gate 268 259 -267 0
259 -268 0
-267 -268 0
-259 267 268 0
c gate 269 -254 -268 0
-254 -269 0
-268 -269 0
254 268 269 0
c gate 270 253 -269 0
253 -270 0
-269 -270 0
-253 269 270 0
c gate 271 250 -270 0
250 -271 0
-270 -271 0
-250 270 271 0
c gate 272 247 -271 0
247 -272 0
-271 -272 0
-247 271 272 0
c gate 273 -244 -272 0
-244 -273 0
-272 -273 0
244 272 273 0
c gate 274 247 264 0
247 -274 0
264 -274 0
-247 -264 274 0
c gate 275 250 253 0
250 -275 0
253 -275 0
-250 -253 275 0
c gate 276 274 275 0
274 -276 0
275 -276 0
-274 -275 276 0
c gate 277 -254 -265 0
-254 -277 0
-265 -277 0
254 265 277 0
c gate 278 -25 -89 0
-25 -278 0
-89 -278 0
25 89 278 0
c gate 279 -244 -278 0
-244 -279 0
-278 -279 0
244 278 279 0
c gate 280 277 279 0
277 -280 0
279 -280 0
-277 -279 280 0
c gate 281 -261 280 0
-261 -281 0
280 -281 0
261 -280 281 0
c gate 282 276 281 0
276 -282 0
281 -282 0
-276 -281 282 0
c gate 283 259 282 0
259 -283 0
282 -283 0
-259 -282 283 0
c gate 284 2 66 0
2 -284 0
66 -284 0
-2 -66 284 0
c gate 285 1 65 0
1 -285 0
65 -285 0
-1 -65 285 0
c gate 286 -284 -285 0
-284 -286 0
-285 -286 0
284 285 286 0
c gate 287 -3 -67 0
-3 -287 0
-67 -287 0
3 67 287 0
c gate 288 -2 -66 0
-2 -288 0
-66 -288 0
2 66 288 0
c gate 289 -287 -288 0
-287 -289 0
-288 -289 0
287 288 289 0
c gate 290 -286 289 0
-286 -290 0
289 -290 0
286 -289 290 0
c gate 291 4 68 0
4 -291 0
68 -291 0
-4 -68 291 0
c gate 292 3 67 0
3 -292 0
67 -292 0
-3 -67 292 0
c gate 293 -291 -292 0
-291 -293 0
-292 -293 0
291 292 293 0
c gate 294 -290 293 0
-290 -294 0
293 -294 0
290 -293 294 0
c gate 295 -4 -68 0
-4 -295 0
-68 -295 0
4 68 295 0
c gate 296 -5 -69 0
-5 -296 0
-69 -296 0
5 69 296 0
c gate 297 -295 -296 0
-295 -297 0
-296 -297 0
295 296 297 0
c gate 298 -294 297 0
-294 -298 0
297 -298 0
294 -297 298 0
c gate 299 6 70 0
6 -299 0
70 -299 0
-6 -70 299 0
c gate 300 5 69 0
5 -300 0
69 -300 0
-5 -69 300 0
c gate 301 -299 -300 0
-299 -301 0
-300 -301 0
299 300 301 0
c gate 302 -298 301 0
-298 -302 0
301 -302 0
298 -301 302 0
c gate 303 -7 -71 0
-7 -303 0
-71 -303 0
7 71 303 0
c gate 304 -6 -70 0
-6 -304 0
-70 -304 0
6 70 304 0
c gate 305 -303 -304 0
-303 -305 0
-304 -305 0
303 304 305 0
c gate 306 -302 305 0
-302 -306 0
305 -306 0
302 -305 306 0
c gate 307 8 72 0
8 -307 0
72 -307 0
-8 -72 307 0
c gate 308 7 71 0
7 -308 0
71 -308 0
-7 -71 308 0
c gate 309 -307 -308 0
-307 -309 0
-308 -309 0
307 308 309 0
c gate 310 -306 309 0
-306 -310 0
309 -310 0
306 -309 310 0
c gate 311 -9 -73 0
-9 -311 0
-73 -311 0
9 73 311 0
c gate 312 -8 -72 0
-8 -312 0
-72 -312 0
8 72 312 0
c gate 313 -311 -312 0
-311 -313 0
-312 -313 0
311 312 313 0
c gate 314 -310 313 0
-310 -314 0
313 -314 0
310 -313 314 0
c gate 315 10 74 0
10 -315 0
74 -315 0
-10 -74 315 0
c gate 316 9 73 0
9 -316 0
73 -316 0
-9 -73 316 0
c gate 317 -315 -316 0
-315 -317 0
-316 -317 0
315 316 317 0
c gate 318 -314 317 0
-314 -318 0
317 -318 0
314 -317 318 0
c gate 319 -10 -74 0
-10 -319 0
-74 -319 0
10 74 319 0
c gate 320 -12 -76 0
-12 -320 0
-76 -320 0
12 76 320 0
c gate 321 -11 -75 0
-11 -321 0
-75 -321 0
11 75 321 0
c gate 322 -320 -321 0
-320 -322 0
-321 -322 0
320 321 322 0
c gate 323 -319 322 0
-319 -323 0
322 -323 0
319 -322 323 0
c gate 324 -318 323 0
-318 -324 0
323 -324 0
318 -323 324 0
c gate 325 12 76 0
12 -325 0
76 -325 0
-12 -76 325 0
c gate 326 11 75 0
11 -326 0
75 -326 0
-11 -75 326 0
c gate 327 -320 326 0
-320 -327 0
326 -327 0
320 -326 327 0
c gate 328 -325 -327 0
-325 -328 0
-327 -328 0
325 327 328 0
c gate 329 -324 328 0
-324 -329 0
328 -329 0
324 -328 329 0
c gate 330 -14 -78 0
-14 -330 0
-78 -330 0
14 78 330 0
c gate 331 -15 -79 0
-15 -331 0
-79 -331 0
15 79 331 0
c gate 332 -330 -331 0
-330 -332 0
-331 -332 0
330 331 332 0
c gate 333 14 78 0
14 -333 0
78 -333 0
-14 -78 333 0
c gate 334 13 77 0
13 -334 0
77 -334 0
-13 -77 334 0
c gate 335 -333 -334 0
-333 -335 0
-334 -335 0
333 334 335 0
c gate 336 -13 -77 0
-13 -336 0
-77 -336 0
13 77 336 0
c gate 337 335 -336 0
335 -337 0
-336 -337 0
-335 336 337 0
c gate 338 332 337 0
332 -338 0
337 -338 0
-332 -337 338 0
c gate 339 -329 338 0
-329 -339 0
338 -339 0
329 -338 339 0
c gate 340 332 -335 0
332 -340 0
-335 -340 0
-332 335 340 0
c gate 341 15 79 0
15 -341 0
79 -341 0
-15 -79 341 0
c gate 342 16 80 0
16 -342 0
80 -342 0
-16 -80 342 0
c gate 343 -341 -342 0
-341 -343 0
-342 -343 0
341 342 343 0
c gate 344 -340 343 0
-340 -344 0
343 -344 0
340 -343 344 0
c gate 345 -339 344 0
-339 -345 0
344 -345 0
339 -344 345 0
c gate 346 -20 -84 0
-20 -346 0
-84 -346 0
20 84 346 0
c gate 347 19 -346 0
19 -347 0
-346 -347 0
-19 346 347 0
c gate 348 83 -346 0
83 -348 0
-346 -348 0
-83 346 348 0
c gate 349 -347 -348 0
-347 -349 0
-348 -349 0
347 348 349 0
c gate 350 -17 -81 0
-17 -350 0
-81 -350 0
17 81 350 0
c gate 351 -16 -80 0
-16 -351 0
-80 -351 0
16 80 351 0
c gate 352 -21 -85 0
-21 -352 0
-85 -352 0
21 85 352 0
c gate 353 -351 -352 0
-351 -353 0
-352 -353 0
351 352 353 0
c gate 354 -350 353 0
-350 -354 0
353 -354 0
350 -353 354 0
c gate 355 22 86 0
22 -355 0
86 -355 0
-22 -86 355 0
c gate 356 21 85 0
21 -356 0
85 -356 0
-21 -85 356 0
c gate 357 -355 -356 0
-355 -357 0
-356 -357 0
355 356 357 0
c gate 358 -24 -88 0
-24 -358 0
-88 -358 0
24 88 358 0
c gate 359 -18 -82 0
-18 -359 0
-82 -359 0
18 82 359 0
c gate 360 -358 -359 0
-358 -360 0
-359 -360 0
358 359 360 0
c gate 361 357 360 0
357 -361 0
360 -361 0
-357 -360 361 0
c gate 362 354 361 0
354 -362 0
361 -362 0
-354 -361 362 0
c gate 363 -349 362 0
-349 -363 0
362 -363 0
349 -362 363 0
c gate 364 20 84 0
20 -364 0
84 -364 0
-20 -84 364 0
c gate 365 83 347 0
83 -365 0
347 -365 0
-83 -347 365 0
c gate 366 -364 -365 0
-364 -366 0
-365 -366 0
364 365 366 0
c gate 367 17 81 0
17 -367 0
81 -367 0
-17 -81 367 0
c gate 368 18 82 0
18 -368 0
82 -368 0
-18 -82 368 0
c gate 369 -367 -368 0
-367 -369 0
-368 -369 0
367 368 369 0
c gate 370 -23 -87 0
-23 -370 0
-87 -370 0
23 87 370 0
c gate 371 -22 -86 0
-22 -371 0
-86 -371 0
22 86 371 0
c gate 372 -370 -371 0
-370 -372 0
-371 -372 0
370 371 372 0
c gate 373 24 88 0
24 -373 0
88 -373 0
-24 -88 373 0
c gate 374 23 87 0
23 -374 0
87 -374 0
-23 -87 374 0
c gate 375 -373 -374 0
-373 -375 0
-374 -375 0
373 374 375 0
c gate 376 372 375 0
372 -376 0
375 -376 0
-372 -375 376 0
c gate 377 369 376 0
369 -377 0
376 -377 0
-369 -376 377 0
c gate 378 366 377 0
366 -378 0
377 -378 0
-366 -377 378 0
c gate 379 363 378 0
363 -379 0
378 -379 0
-363 -378 379 0
c gate 380 -345 379 0
-345 -380 0
379 -380 0
345 -379 380 0
c gate 381 -359 -369 0
-359 -381 0
-369 -381 0
359 369 381 0
c gate 382 -349 381 0
-349 -382 0
381 -382 0
349 -381 382 0
c gate 383 366 -382 0
366 -383 0
-382 -383 0
-366 382 383 0
c gate 384 -352 -383 0
-352 -384 0
-383 -384 0
352 383 384 0
c gate 385 357 -384 0
357 -385 0
-384 -385 0
-357 384 385 0
c gate 386 372 -385 0
372 -386 0
-385 -386 0
-372 385 386 0
c gate 387 375 -386 0
375 -387 0
-386 -387 0
-375 386 387 0
c gate 388 -358 -387 0
-358 -388 0
-387 -388 0
358 387 388 0
c gate 389 -380 -388 0
-380 -389 0
-388 -389 0
380 388 389 0
c gate 390 283 -389 0
283 -390 0
-389 -390 0
-283 389 390 0
c gate 391 -273 -390 0
-273 -391 0
-390 -391 0
273 390 391 0
c gate 392 243 -391 0
243 -392 0
-391 -392 0
-243 391 392 0
c gate 393 -234 -392 0
-234 -393 0
-392 -393 0
234 392 393 0
c gate 394 -41 -105 0
-41 -394 0
-105 -394 0
41 105 394 0
c gate 395 187 -394 0
187 -395 0
-394 -395 0
-187 394 395 0
c gate 396 184 395 0
184 -396 0
395 -396 0
-184 -395 396 0
c gate 397 174 396 0
174 -397 0
396 -397 0
-174 -396 397 0
c gate 398 -393 397 0
-393 -398 0
397 -398 0
393 -397 398 0
c gate 399 202 398 0
202 -399 0
398 -399 0
-202 -398 399 0
c gate 400 204 -399 0
204 -400 0
-399 -400 0
-204 399 400 0
c gate 401 60 124 0
60 -401 0
124 -401 0
-60 -124 401 0
c gate 402 -60 -124 0
-60 -402 0
-124 -402 0
60 124 402 0
c gate 403 59 123 0
59 -403 0
123 -403 0
-59 -123 403 0
c gate 404 -402 403 0
-402 -404 0
403 -404 0
402 -403 404 0
c gate 405 -401 -404 0
-401 -405 0
-404 -405 0
401 404 405 0
c gate 406 -58 -122 0
-58 -406 0
-122 -406 0
58 122 406 0
c gate 407 -59 -123 0
-59 -407 0
-123 -407 0
59 123 407 0
c gate 408 -402 -407 0
-402 -408 0
-407 -408 0
402 407 408 0
c gate 409 -406 408 0
-406 -409 0
408 -409 0
406 -408 409 0
c gate 410 405 409 0
405 -410 0
409 -410 0
-405 -409 410 0
c gate 411 58 122 0
58 -411 0
122 -411 0
-58 -122 411 0
c gate 412 57 121 0
57 -412 0
121 -412 0
-57 -121 412 0
c gate 413 -411 -412 0
-411 -413 0
-412 -413 0
411 412 413 0
c gate 414 -57 -121 0
-57 -414 0
-121 -414 0
57 121 414 0
c gate 415 413 -414 0
413 -415 0
-414 -415 0
-413 414 415 0
c gate 416 410 415 0
410 -416 0
415 -416 0
-410 -415 416 0
c gate 417 -62 -126 0
-62 -417 0
-126 -417 0
62 126 417 0
c gate 418 -63 -127 0
-63 -418 0
-127 -418 0
63 127 418 0
c gate 419 -417 -418 0
-417 -419 0
-418 -419 0
417 418 419 0
c gate 420 63 127 0
63 -420 0
127 -420 0
-63 -127 420 0
c gate 421 64 128 0
64 -421 0
128 -421 0
-64 -128 421 0
c gate 422 -420 -421 0
-420 -422 0
-421 -422 0
420 421 422 0
c gate 423 -64 -128 0
-64 -423 0
-128 -423 0
64 128 423 0
c gate 424 422 -423 0
422 -424 0
-423 -424 0
-422 423 424 0
c gate 425 419 424 0
419 -425 0
424 -425 0
-419 -424 425 0
c gate 426 61 125 0
61 -426 0
125 -426 0
-61 -125 426 0
c gate 427 62 126 0
62 -427 0
126 -427 0
-62 -126 427 0
c gate 428 -426 -427 0
-426 -428 0
-427 -428 0
426 427 428 0
c gate 429 -61 -125 0
-61 -429 0
-125 -429 0
61 125 429 0
c gate 430 428 -429 0
428 -430 0
-429 -430 0
-428 429 430 0
c gate 431 425 430 0
425 -431 0
430 -431 0
-425 -430 431 0
c gate 432 416 431 0
416 -432 0
431 -432 0
-416 -431 432 0
c gate 433 -400 432 0
-400 -433 0
432 -433 0
400 -432 433 0
c gate 434 410 -413 0
410 -434 0
-413 -434 0
-410 413 434 0
c gate 435 405 -434 0
405 -435 0
-434 -435 0
-405 434 435 0
c gate 436 -204 416 0
-204 -436 0
416 -436 0
204 -416 436 0
c gate 437 435 -436 0
435 -437 0
-436 -437 0
-435 436 437 0
c gate 438 -429 -437 0
-429 -438 0
-437 -438 0
429 437 438 0
c gate 439 428 -438 0
428 -439 0
-438 -439 0
-428 438 439 0
c gate 440 425 -439 0
425 -440 0
-439 -440 0
-425 439 440 0
c gate 441 -420 -440 0
-420 -441 0
-440 -441 0
420 440 441 0
c gate 442 431 -435 0
431 -442 0
-435 -442 0
-431 435 442 0
c gate 443 419 -428 0
419 -443 0
-428 -443 0
-419 428 443 0
c gate 444 422 -443 0
422 -444 0
-443 -444 0
-422 443 444 0
c gate 445 -423 -444 0
-423 -445 0
-444 -445 0
423 444 445 0
c gate 446 -442 -445 0
-442 -446 0
-445 -446 0
442 445 446 0
c gate 447 -441 446 0
-441 -447 0
446 -447 0
441 -446 447 0
c gate 448 433 447 0
433 -448 0
447 -448 0
-433 -447 448 0
c PO
448 0
